GLPSOL--GLPK LP/MIP Solver 5.0
Parameter(s) specified in the command line:
 --lp ../modeles/10_184.lp --log 10_184.log
Reading problem data from '../modeles/10_184.lp'...
1881 rows, 3700 columns, 12910 non-zeros
1840 integer variables, all of which are binary
5597 lines were read
GLPK Integer Optimizer 5.0
1881 rows, 3700 columns, 12910 non-zeros
1840 integer variables, all of which are binary
Preprocessing...
1820 constraint coefficient(s) were reduced
1881 rows, 3690 columns, 12900 non-zeros
1840 integer variables, all of which are binary
Scaling...
 A: min|aij| =  4.726e-04  max|aij| =  4.000e+00  ratio =  8.464e+03
GM: min|aij| =  1.043e-01  max|aij| =  9.592e+00  ratio =  9.200e+01
EQ: min|aij| =  1.087e-02  max|aij| =  1.000e+00  ratio =  9.200e+01
2N: min|aij| =  7.561e-03  max|aij| =  1.727e+00  ratio =  2.284e+02
Constructing initial basis...
Size of triangular part is 1881
Solving LP relaxation...
GLPK Simplex Optimizer 5.0
1881 rows, 3690 columns, 12900 non-zeros
      0: obj =   2.000000000e+01 inf =   4.950e+01 (21)
    129: obj =   1.762098919e-01 inf =   0.000e+00 (0)
*   525: obj =  -3.160419790e+00 inf =   1.609e-14 (0)
OPTIMAL LP SOLUTION FOUND
Integer optimization begins...
Long-step dual simplex will be used
+   525: mip =     not found yet >=              -inf        (1; 0)
+   650: >>>>>  -3.160419790e+00 >=  -3.160419790e+00 < 0.1% (121; 0)
+   650: mip =  -3.160419790e+00 >=     tree is empty   0.0% (0; 241)
INTEGER OPTIMAL SOLUTION FOUND
Time used:   0.4 secs
Memory used: 5.4 Mb (5693830 bytes)
